BAYES
20
3 2 3 2 4 5 6 3 2 2 2 3 2 2 3 3 3 3 2 5
20
3 6 18 0
1  1
2 16 2
2 2 3
2 6 4
3 15 16 5
2 1 6
2 6 7
3 16 18 8
2 8 9
3 4 7 10
3 4 16 11
2 6 12
2 12 13
3 10 11 14
2 6 15
2 6 16
2 11 17
2 6 18
2 5 19

36
0.95 0.03 0.02 0.85 0.1 0.05 0.8 0.15 0.05 0.7 0.2 0.1 0.7 0.15 0.15 0.25 0.25 0.5 0.8 0.15 0.05 0.8 0.15 0.05 0.8 0.15 0.05 0.7 0.2 0.1 0.9 0.08 0.02 0.8 0.15 0.05
2
0.1 0.9
9
0.8 0.1 0.1 0.65 0.05 0.3 0.45 0.05 0.5
6
0.9 0.1 0.9 0.1 0.1 0.9
24
0.4 0.43 0.15 0.02 0.02 0.09 0.09 0.8 0.02 0.16 0.8 0.02 0.01 0.02 0.95 0.02 0.01 0.03 0.95 0.01 0.4 0.53 0.05 0.02
45
0.9 0.03 0.03 0.01 0.03 0.05 0.02 0.15 0.7 0.08 0.05 0.05 0.05 0.05 0.8 0.14 0.8 0.02 0.02 0.02 0.05 0.22 0.08 0.5 0.15 0.05 0.15 0.05 0.05 0.7 0.15 0.01 0.79 0.04 0.01 0.05 0.02 0.4 0.4 0.13 0.24 0.33 0.03 0.34 0.06
12
0.2 0.3 0.25 0.15 0.05 0.05 0.03061224 0.33673469 0.29591837 0.23469388 0.05102041 0.05102041
18
1.0 0.0 0.0 1.0 0.0 0.0 1.0 0.0 0.0 1.0 0.0 0.0 1.0 0.0 0.0 1.0 0.0 0.0
12
1.0 0.0 1.0 0.0 1.0 0.0 1.0 0.0 1.0 0.0 1.0 0.0
4
0.8 0.2 0.1 0.9
24
0.95 0.05 0.95 0.05 0.05 0.95 0.95 0.05 0.95 0.05 0.5 0.5 0.95 0.05 0.95 0.05 0.95 0.05 0.95 0.05 0.95 0.05 0.5 0.5
36
0.93 0.05 0.02 0.15 0.8 0.05 0.7 0.2 0.1 0.1 0.8 0.1 0.1 0.75 0.15 0.1 0.65 0.25 0.1 0.7 0.2 0.05 0.65 0.3 0.1 0.5 0.4 0.02 0.18 0.8 0.1 0.3 0.6 0.02 0.18 0.8
12
0.1 0.9 0.1 0.9 0.1 0.9 0.9 0.1 0.05 0.95 0.1 0.9
4
0.9 0.1 0.05 0.95
18
0.1 0.3 0.6 0.3 0.6 0.1 0.5 0.4 0.1 0.4 0.5 0.1 0.5 0.45 0.05 0.6 0.35 0.05
18
0.3 0.65 0.05 0.2 0.05 0.75 0.15 0.8 0.05 0.1 0.85 0.05 0.3 0.1 0.6 0.7 0.1 0.2
18
0.6 0.1 0.3 0.8 0.05 0.15 0.8 0.05 0.15 0.8 0.05 0.15 0.1 0.6 0.3 0.03 0.25 0.72
9
0.1 0.3 0.6 0.3 0.6 0.1 0.5 0.4 0.1
12
0.4 0.6 0.3 0.7 0.2 0.8 0.3 0.7 0.7 0.3 0.7 0.3
25
0.8 0.06 0.06 0.02 0.06 0.1 0.8 0.02 0.02 0.06 0.1 0.02 0.8 0.02 0.06 0.08 0.02 0.1 0.6 0.2 0.08 0.02 0.1 0.1 0.7